/*********************************************
 * OPL 20.1.0.0 Data
 * Author: lamm
 * Creation Date: 26 févr. 2021 at 15:21:12
 *********************************************/
nbObjet = 6;
poidsMax = 15;

poids = [1,2,3,4,5,6];
valeur= [4,5,6,7,8,9];